141868
0,42,78,90,59,95,77,93,2,104,37,103,94,70,35,53,66,40,10,84,47,72,1,44,24,85,61,21,20,76,45,5,16,89,63,15,19,55,39,87,68,97,12,30,64,51,4,29,28,54,96,105,7,11,92,88,79,56,22,91,8,41,80,18,49,67,98,34,50,99,71,81,32,83,52,38,48,36,100,69,17,6,31,62,74,14,3,102,60,46,13,25,33,82,73,101,23,57,75,27,26,9,58,65,43,86,0